(declare-const X String)
; name\u{2e}cnnic\u{2e}cn\scom\u{2F}index\.php\?tpid=\s\u{5B}Static.*\u{2F}bar_pl\u{2F}b\.fcgi
(assert (not (str.in_re X (re.++ (str.to_re "name.cnnic.cn") (re.union (str.to_re " ") (str.to_re "\u{9}") (str.to_re "\u{a}") (str.to_re "\u{c}") (str.to_re "\u{d}")) (str.to_re "com/index.php?tpid=") (re.union (str.to_re " ") (str.to_re "\u{9}") (str.to_re "\u{a}") (str.to_re "\u{c}") (str.to_re "\u{d}")) (str.to_re "[Static") (re.* re.allchar) (str.to_re "/bar_pl/b.fcgi\u{a}")))))
; /\.php\?b=[A-F0-9]+&v=1\./U
(assert (str.in_re X (re.++ (str.to_re "/.php?b=") (re.+ (re.union (re.range "A" "F") (re.range "0" "9"))) (str.to_re "&v=1./U\u{a}"))))
; (([\w|\.]*)\s*={1}\s*(.*?))$
(assert (not (str.in_re X (re.++ (str.to_re "\u{a}") (re.* (re.union (str.to_re "|") (str.to_re ".") (re.range "0" "9") (re.range "A" "Z") (re.range "a" "z") (str.to_re "_"))) (re.* (re.union (str.to_re " ") (str.to_re "\u{9}") (str.to_re "\u{a}") (str.to_re "\u{c}") (str.to_re "\u{d}"))) ((_ re.loop 1 1) (str.to_re "=")) (re.* (re.union (str.to_re " ") (str.to_re "\u{9}") (str.to_re "\u{a}") (str.to_re "\u{c}") (str.to_re "\u{d}"))) (re.* re.allchar)))))
; \u{2F}rss\d+Host\u{3a}TCP\u{2F}AD\u{2F}ULOGNetBusCookie\u{3a}
(assert (str.in_re X (re.++ (str.to_re "/rss") (re.+ (re.range "0" "9")) (str.to_re "Host:TCP/AD/ULOGNetBusCookie:\u{a}"))))
; /filename=[^\n]*\u{2e}oga/i
(assert (str.in_re X (re.++ (str.to_re "/filename=") (re.* (re.comp (str.to_re "\u{a}"))) (str.to_re ".oga/i\u{a}"))))
(check-sat)
